M+/Instances/S1-15-M+/S1-10-15-3-l-M+.txt
     100      15    0.10
       2       1       2       1       2       1       3       2       1       1       1       2       3       3       1       8       4       9       9       3       3       9      10      12      16      16      15      11       5       4       9
       1       2       3       3       1       3       3       3       1       2       3       3       1       2       3      14       0       4       8       4      12       5      16      15       5      12       0      13       6      15       7
       1       1       3       1       1       1       3       2       1       1       2       3       1       1       2      14       6      14       7       5       0      15       3       4       8       0       3       3      16      14       9
       2       3       2       2       3       2       3       2       3       2       2       2       2       1       2      10      14       6      11       6      16       0      16      12      10      12       3      15       6      15       6
       3       1       1       1       2       1       2       3       2       1       1       3       1       3       1       8       1       5      14      10      15      13       7       2       7       1      11      10       5       8       6
       2       3       3       1       3       1       1       2       1       2       2       2       2       3       1       1       7      12      16      15      16      13      11      15       5       4       2       9       3       3      11
       3       3       1       3       3       2       1       2       3       3       2       1       2       1       2       5      14       3       1      16       1       6       7       2      12       5       8       6       8      12       8
       3       2       3       3       1       2       2       2       1       3       2       1       1       1       1       8       5      14       5      13      15      14      14      15      16       9       9       5       9       2       6
       3       1       1       3       3       2       1       1       2       2       1       1       1       2       3       6      11       7      14      11       1       5      11       8      15       8      15       7       4       1       9
       2       3       1       1       1       3       3       2       1       2       2       2       1       3       1       3       3       1       4       8       1      14       0       3       9      10      14       0      16      12       6
       3       3       3       3       3       1       2       3       3       3       3       3       1       3       2      16       0       8       6      13       8       4       0       8       4       2      16       5      16      11       6
       2       3       3       2       3       2       3       1       3       2       3       3       1       3       1      12      12       5       5       5       0       0      12       4      15       5       0      15       5      14       9
       1       2       1       3       3       2       2       2       1       2       3       2       2       2       2       5      13       9       1       2       5       5       2      14      10      16       6       1       2      15       6
       2       3       3       1       2       2       1       3       1       1       2       2       1       1       3       6      15       9       2       2       9      14      16       1       2       0      13      14       9      11       7
       1       1       1       2       1       1       3       2       2       2       1       1       3       2       3       4      13       3      13       1       0       4       8       2      15      10      13      14      10      16       8
       2       1       3       2       1       2       3       3       3       1       1       2       1       1       3       3      15       8       6       9       7       0      13      16       9      12      14       8      12       1       9
       1       2       3       1       3       1       3       1       2       2       3       1       2       3       1      12       6      12       0      13      14       1       3       1       1      11       1       7       3      11      10
       3       1       3       3       1       3       2       1       3       1       3       1       2       1       3      13       8       9      14       7       3       0       7      11      12       5       9      10       2      12      11
       2       3       2       2       3       1       2       3       2       1       2       1       1       1       3       4      14       0       8       9      12       2       4      14       0      12      10       0      13      10       7
       3       2       1       3       2       1       3       3       1       1       2       1       2       3       2      16      10      11      12      16       6       5       7       1       8       6       3       3       8       4       6
       2       2       3       2       1       1       3       1       1       2       1       1       1       3       1       7      12      14       4       2       5       6      11      10       8       8       4       5      12       1       8
       2       1       1       2       1       2       2       3       3       1       1       2       3       3       1      10      15       1      16       8      15      11       6      14       4       2       8      13      15      11       9
       3       1       2       2       3       2       2       3       2       1       1       2       1       2       2       9       5       2       8       7       6      10       2      15      11       6       4       6      15       8       7
       2       2       1       2       1       3       2       3       3       3       3       3       2       3       2      12      14      14       6       6       2       3       6       7       1       9      10      12       2       4       7
       3       3       1       3       3       2       3       1       3       3       2       3       1       1       2      11       6       5      15       5      14      13       0       8      15       3      16       3       8       1       7
       2       1       2       2       1       3       2       2       3       1       2       3       1       1       3      11       0      13       6      14       3       8       2       8      11       0      14      11       5      11       6
       1       1       2       1       1       1       2       1       1       2       2       3       1       3       2       3       6      10       8      10       2      14       4       5      10      13      14       1      11       3       7
       2       2       2       2       3       1       2       2       1       3       2       3       3       1       2       9      14       7       2      12       4      11       3      14       7       2       1       9      13      13      10
       1       2       3       2       1       1       2       3       3       1       2       1       1       2       3      10       2      16      12      12       6      11       6      10       7      14       0       9       8       0      10
       1       3       3       3       3       3       2       1       1       2       2       1       2       2       3       8      13       5       4       0       1       6       0       1       1       1       1      15      10      16      10
       1       2       1       1       3       3       2       1       3       3       2       3       1       1       1      15       9       7       3       7       4      15       3      16       5       0       0      14      12       5       7
       3       1       2       3       2       3       3       2       2       2       3       2       2       1       1      13      13      15      15      13       0       0       0       8      16      11       1       9       7       3       8
       3       3       3       2       2       3       2       2       3       3       1       1       3       2       1       1       5       5      13      14       4       0       4      11       9      10       5      15       2       9       6
       1       3       1       1       2       2       2       2       3       3       3       3       1       1       3       8      14      13       9      16      14      15       5       9       5       4       2      13       8      14       6
       1       1       1       2       2       3       3       3       1       2       3       1       2       2       3       1      10       6       3      11       4       6      11      14      13      14      10       1       1       2       9
       3       2       2       2       3       2       3       1       1       2       3       3       2       1       3       1       8      15      10       0       8      14       4       5       4       1      13      10      16      14       7
       2       3       3       3       1       2       3       1       1       1       2       2       2       2       2       4       6       4       0      13      13       3       7      11       4       5       3       0       9       1       8
       3       1       3       2       3       1       2       3       2       3       3       1       3       1       2      16      11       1       4       8       7      14       7       4      13       0       1       4       5       2       6
       1       3       3       2       2       3       1       3       1       2       3       3       1       3       1       4       0       6       6       2       7       8       7       1       9       0       0       2       8       1       7
       2       3       3       2       3       1       3       2       2       1       3       1       3       1       1      15       4       0       9       0      10       4       9       0      11       6       3       1       6      16       8
       1       2       2       3       2       3       1       2       1       3       2       2       2       2       3       9       6      12       3       8       6       4       9       1       2      10       7      12      14       2       6
       1       2       3       1       2       3       1       2       3       1       3       3       2       2       1      14       6       5      14       4      14      16       9      14       5       7      11      16      16      15       8
       1       3       2       3       2       1       1       3       2       3       3       3       2       2       2       1      13       3      14       3       6       7       6       7       1      12      11       7       7       1       8
       3       1       3       3       2       3       1       1       2       2       3       1       1       2       3      14       3       6       3      10      13      13      10       7      11       4       3      12      12       1      10
       1       2       2       1       2       2       2       3       3       3       2       1       1       1       1       0      10       7      13       2       6      10       2      13       4      10      14      15      10      15       7
       1       1       2       1       3       1       1       1       3       3       2       3       1       2       1       0      14       1       1       4       4       8       0       0       7       0      15      11       3       6       6
       1       1       3       3       2       2       2       1       2       3       2       1       2       1       1       0      14      16      10       5      16      16       7       5       2       7      10      12       5       6       6
       1       1       1       1       1       2       3       1       1       2       1       3       1       2       3      12      11       8       1      16       4      16       0      14      11       0       6      13       0      10       6
       2       3       3       1       3       2       3       3       2       1       1       2       2       1       1       6       1      12       8       9      13       6       1       8       8      13      14       5       3       4      11
       2       1       3       3       3       2       3       2       1       2       2       1       1       2       2      16       8      15       2       6       1       0       4       5       4       0       2      10       7      14      11
       3       1       2       1       2       3       1       1       3       3       3       2       3       2       3       6       2       0       2       8       3       1       0       2      14       7       7       4       8      13       8
       1       3       2       1       3       1       1       2       2       1       1       3       2       3       1       5       7      13       8      10       2       7       6       7       6       4       0      14       0       7       8
       1       3       1       2       1       1       1       1       2       1       1       2       3       2       1       2      12       4       4       5       1       7       0       7       6      11       2       2       4      13       9
       1       2       1       1       1       2       2       3       3       3       3       3       3       2       3      12      14      10      16      12      10      14      11      16      12       4       4       8      16       8      10
       1       3       1       3       3       2       3       2       3       1       3       3       1       3       2       8       5       2       2       7       5       5       1       0      11       6      13       9       8      14       9
       3       2       3       1       3       3       3       1       2       3       2       3       2       3       1      13       3      13       5      13      13       4      12       6       9      10      14       2      11       1       9
       1       1       1       2       2       3       2       3       2       1       1       1       3       2       3      11      13       3       4       6       6      13      11      14       7       5      11       5       4      16       7
       2       3       2       1       1       3       1       3       1       1       3       3       2       3       3      12       7       9      11       7      11       1      12       3       8       2       4       4       0       9       7
       3       1       3       1       2       2       2       3       2       1       1       1       3       1       1      11       0       4      11       8      11      15      16      14       8      14       7       5      13       1      11
       1       3       3       3       3       1       2       1       1       1       1       2       2       3       2      10      14       2       4       3      13      15       7      16       4       9       6       6       2       1      10
       1       3       2       2       1       2       1       1       2       2       2       1       3       3       3       3      13       5       6       7      14       4       8       2       6       0      11       4      11      10       6
       3       2       1       3       1       3       3       1       3       1       2       1       3       3       3       8       2       9       5       2       8      16       4       9      15       4       2       2       8       1       9
       1       1       1       3       2       3       3       1       2       1       3       2       1       2       2      15       0       2       9       1      10      10      16       8      12      12      10       7      14       0       7
       1       2       1       1       1       3       2       3       1       3       2       3       3       1       1       7      16      14      11      16      13      12       0      14       1       1       0      15      13       8      10
       3       1       2       3       3       1       3       1       2       2       1       1       1       2       1       8      14      11       4      13      10       1       1      16      14       0      12       7      11       7      10
       1       3       1       2       2       2       1       2       3       1       1       2       1       1       1       0      11       4      16      16       7       6      13      11       5      11      15       5       1      11      11
       1       3       2       3       1       3       3       2       2       2       3       1       2       3       2      14       7       5      14      14       5       3      14      16       0       0      12      15      15       0       9
       2       2       3       3       1       3       1       1       3       1       3       2       2       2       1       7       9      14      12       1       0       8      12      10       7       1       6       7      10       0       7
       1       3       2       2       2       3       1       2       1       1       3       1       3       1       2       0      10       7      13      12      14      14       5      11       8       6      15       7      15       0       7
       3       1       2       1       2       2       1       2       3       3       2       2       1       1       2       0      13       6      16      15      10       6       6      15      12       2       0      13      10      15      11
       2       3       2       3       2       2       1       3       2       2       3       1       3       1       1       3      11       9      13       5      12      16       5      14       0       3       5       0       4       2       7
       3       2       1       2       3       3       3       3       1       1       1       1       1       2       1       0       4      15      15      16      14      15      10       0      11      15       6       6      14      12       8
       3       2       1       3       1       1       2       2       2       1       3       2       3       2       2       7       7       1       0      16      14       3       4      11      15      15       2       1       2      16      10
       1       2       3       1       3       2       2       1       3       2       2       2       1       2       1       6      14       4      15       3       0       2      14       9      10       8      13       7      12       4       8
       3       3       2       1       1       3       2       2       2       2       2       2       3       2       2       7       8       9      16       6      12       4       0      15       1       3       8       3       6       5      11
       2       2       3       1       2       2       1       3       2       3       1       2       3       3       2      16       7       1      14       0      11      12      16       7       4       8       7       2      12      11       7
       2       2       1       1       2       2       1       3       2       2       3       2       1       3       1       9       9      10      11       5      10       3       7       9       3      12      10      12       5      11      10
       2       3       1       1       2       3       2       3       3       3       3       3       2       3       2      14       5       2       3       3       5       8       8      16      14       1       1       0      10       8       7
       2       1       3       3       3       1       1       2       3       2       1       3       1       3       3       7       7       2       6       9       2       9       1       6       8      13       2       0       9       0      11
       3       3       1       3       2       2       1       2       3       3       2       2       1       2       2       7      16       6       3       9      13       6       7       7       3       2       6       4      11      13      11
       3       2       3       3       2       1       1       1       3       2       1       2       2       2       1       3       9       5       3      10      16      10      15      12       8       1      16      11      12       0       9
       2       1       3       3       2       3       2       2       2       3       2       1       2       2       3      11      16      16      11       6       3       3       7       8       8       0      13      11       3       3      10
       3       2       3       2       1       1       3       3       3       2       3       2       1       1       1      11       3       8      13       0       9       4      12      13       2      10      14      12      12      11       9
       3       2       1       3       2       3       3       2       1       1       2       1       2       1       2      15       2      12       2       8       0       2       1       7       9      11       3       6      16       5       8
       3       3       1       1       2       2       2       3       1       1       3       2       3       1       1       3       9       1       6      16       6      14       3       2       7       0       7       3      12       6       9
       2       3       1       3       3       3       1       3       3       3       1       2       2       2       2      12       9       8      13      16       4      10      10       2       5       6       7       3      15      15      10
       2       2       1       2       1       2       2       3       2       1       2       2       1       1       3      12       2       0       8      12       9      12       4      14       7      11       1      15      16       5      11
       3       2       1       3       3       3       3       1       3       2       3       2       3       3       3      14      13       4       2       1       9       7      14       4       7       2      10       5       8       6      10
       3       3       3       2       3       3       3       3       2       1       2       3       1       3       2       9      12      13      15       0       5       9       4      12      12      13       0      14       5      11      10
       3       2       3       2       2       1       3       1       1       1       1       1       2       1       1      11       9       3      15       3      14      16      13       3       1       7       2      11      16       7      11
       2       1       2       3       1       3       2       2       1       3       3       2       2       3       1      11       7       6       0      12       6       6      13       6      13      11       4      12      14       1       7
       3       3       3       3       1       1       1       2       1       3       1       3       1       1       3       2      16      14      11       3       3      11       6      13      11       5      11       1       2       7       6
       3       3       2       2       3       3       3       1       3       1       3       1       2       1       1       5       6      12      13      15      15      15       5       3      15      11      12       7       0      16       9
       2       1       1       1       1       2       1       2       3       1       1       3       2       3       3      16       8       0       6       1      10       5       1      15       1      15       7       3       4       4      10
       1       3       1       1       1       1       2       2       1       2       3       3       1       2       1      14      10       0       5       2       2       8       4       1      10       9       8       1       4      12       6
       3       2       1       3       2       2       2       3       1       3       1       3       2       3       2       1      14       0       4       0       4       2      13       2       9      10      10       0       6       0       6
       2       3       3       3       1       1       1       1       1       1       3       2       3       1       1       1       3      13      16      10       4       7       7       2       9      11      16       3      15      12      10
       1       1       1       2       2       1       2       2       2       3       2       1       1       3       1      12       8       3      12       4       3       6       3       6      14       1       7      13      14       7       8
       1       1       3       1       2       2       3       2       3       3       2       3       3       2       1      13       4       0      14       2      12      15      13       1      10       4       1       6       3       2       9
       1       3       1       1       1       3       2       1       3       3       1       1       3       1       3       1      11       8       0      16       9       0      14       8      16      16       6      13       4      13       9
      62      94      88      66      69      74      78      62      65      77      55      79      80      70      71
     110     220     220     220     110     220     220     220     220     110     220     110     110     110     110
     330     357     239     226     255     271     421     273     294     443     195     251     400     310     334